# Solution for model Model: H-KMedian-N
# Objective value = 8.1788079816070990e+01
x[1,0,1001,0] 0
x[1,0,1001,1] 0
x[1,0,1002,1] 0
x[1,0,1003,1] 0
x[1,0,1004,0] 0
x[1,0,1004,1] 0
x[1000,0,1001,0] 0
x[1000,0,1001,1] 0
x[1000,0,1003,0] 0
x[1000,0,1003,1] 0
x[1000,0,1004,0] 0
x[1000,0,1004,1] 0
x[1000,1,1001,0] 0
x[1000,1,1001,1] 0
x[1000,1,1003,0] 0
x[1000,1,1003,1] 0
x[1000,1,1004,0] 0
x[1000,1,1004,1] 0
x[1001,0,1000,0] 0
x[1001,0,1000,1] 0
x[1001,0,1002,0] 0
x[1001,0,1002,1] 0
x[1001,0,1003,0] 0
x[1001,0,1003,1] 0
x[1001,0,1004,0] 0
x[1001,0,1004,1] 0
x[1001,1,1000,0] 0
x[1001,1,1000,1] 0
x[1001,1,1002,0] 0
x[1001,1,1002,1] 0
x[1001,1,1003,0] 0
x[1001,1,1003,1] 0
x[1001,1,1004,0] 0
x[1001,1,1004,1] 0
x[1002,0,1001,0] 0
x[1002,0,1001,1] 0
x[1002,1,1001,0] 0
x[1002,1,1001,1] 0
x[1002,1,1003,1] 0
x[1002,1,1004,0] 0
x[1002,1,1004,1] 0
x[1003,0,1000,0] 0
x[1003,0,1000,1] 0
x[1003,0,1001,0] 0
x[1003,0,1001,1] 0
x[1003,0,1004,0] 0
x[1003,0,1004,1] 0
x[1003,1,1000,0] 0
x[1003,1,1000,1] 0
x[1003,1,1001,0] 0
x[1003,1,1001,1] 0
x[1003,1,1002,1] 0
x[1003,1,1004,0] 0
x[1003,1,1004,1] 0
x[1004,0,1000,0] 0
x[1004,0,1000,1] 0
x[1004,0,1001,0] 0
x[1004,0,1001,1] 0
x[1004,0,1002,1] 0
x[1004,0,1003,0] 0
x[1004,0,1003,1] 0
x[1004,1,1000,0] 0
x[1004,1,1000,1] 0
x[1004,1,1001,0] 0
x[1004,1,1001,1] 0
x[1004,1,1002,1] 0
x[1004,1,1003,0] 0
x[1004,1,1003,1] 0
x[1000,0,-1,0] 0
x[1000,1,-1,0] 0
x[1001,0,-1,0] 0
x[1001,1,-1,0] 0
x[1003,0,-1,0] 0
x[1003,1,-1,0] 0
x[1004,0,-1,0] 0
x[1004,1,-1,0] 0
x[1,0,-1,0] 1
